n = 10; 

m=10; 

											
38	5	52	11	42	5	11	12	30	58
4	15	4	53	19	35	32	10	18	25
60	19	13	26	15	9	11	53	41	37
21	46	33	15	26	1	27	11	3	1
39	10	28	37	21	30	2	45	19	34
28	21	16	10	13	11	34	1	41	18
45	8	37	35	17	41	39	37	23	44
2	40	5	45	29	33	31	26	4	26
13	18	22	37	14	9	10	1	46	39
60	19	13	26	15	9	11	53	41	37

	 












 
 


 

 
